p edge 75 1388
e 1 2
e 1 4
e 1 6
e 1 7
e 1 8
e 1 10
e 1 12
e 1 13
e 1 17
e 1 19
e 1 20
e 1 23
e 1 24
e 1 27
e 1 31
e 1 33
e 1 35
e 1 36
e 1 37
e 1 39
e 1 40
e 1 42
e 1 43
e 1 46
e 1 49
e 1 50
e 1 51
e 1 53
e 1 55
e 1 56
e 1 57
e 1 58
e 1 59
e 1 61
e 1 64
e 1 65
e 1 67
e 1 69
e 1 70
e 1 73
e 1 74
e 1 75
e 2 4
e 2 5
e 2 9
e 2 10
e 2 12
e 2 15
e 2 16
e 2 17
e 2 18
e 2 20
e 2 21
e 2 24
e 2 25
e 2 26
e 2 32
e 2 33
e 2 36
e 2 37
e 2 38
e 2 39
e 2 41
e 2 42
e 2 47
e 2 48
e 2 49
e 2 51
e 2 54
e 2 57
e 2 59
e 2 62
e 2 64
e 2 68
e 2 70
e 2 72
e 3 6
e 3 7
e 3 8
e 3 9
e 3 14
e 3 15
e 3 16
e 3 17
e 3 19
e 3 21
e 3 22
e 3 23
e 3 24
e 3 25
e 3 29
e 3 33
e 3 34
e 3 36
e 3 38
e 3 40
e 3 41
e 3 42
e 3 45
e 3 47
e 3 48
e 3 49
e 3 51
e 3 54
e 3 56
e 3 59
e 3 61
e 3 65
e 3 66
e 3 68
e 3 73
e 3 74
e 4 6
e 4 7
e 4 12
e 4 13
e 4 14
e 4 16
e 4 22
e 4 24
e 4 25
e 4 29
e 4 30
e 4 31
e 4 33
e 4 34
e 4 36
e 4 37
e 4 38
e 4 39
e 4 41
e 4 42
e 4 43
e 4 44
e 4 45
e 4 47
e 4 48
e 4 50
e 4 51
e 4 52
e 4 54
e 4 56
e 4 57
e 4 58
e 4 59
e 4 61
e 4 62
e 4 63
e 4 65
e 4 67
e 4 68
e 4 69
e 4 71
e 4 72
e 5 7
e 5 8
e 5 10
e 5 11
e 5 18
e 5 21
e 5 24
e 5 27
e 5 29
e 5 30
e 5 32
e 5 33
e 5 35
e 5 38
e 5 42
e 5 45
e 5 47
e 5 49
e 5 52
e 5 55
e 5 57
e 5 60
e 5 61
e 5 63
e 5 64
e 5 67
e 5 68
e 5 72
e 5 73
e 5 74
e 6 7
e 6 8
e 6 10
e 6 12
e 6 16
e 6 17
e 6 18
e 6 19
e 6 21
e 6 22
e 6 23
e 6 24
e 6 25
e 6 26
e 6 28
e 6 30
e 6 31
e 6 33
e 6 35
e 6 36
e 6 40
e 6 42
e 6 43
e 6 44
e 6 46
e 6 48
e 6 49
e 6 50
e 6 52
e 6 55
e 6 59
e 6 60
e 6 62
e 6 63
e 6 67
e 6 69
e 6 70
e 6 71
e 6 72
e 6 73
e 7 8
e 7 9
e 7 10
e 7 17
e 7 19
e 7 22
e 7 25
e 7 26
e 7 29
e 7 30
e 7 31
e 7 32
e 7 33
e 7 36
e 7 37
e 7 38
e 7 41
e 7 42
e 7 44
e 7 46
e 7 47
e 7 48
e 7 51
e 7 52
e 7 55
e 7 56
e 7 60
e 7 61
e 7 62
e 7 65
e 7 68
e 7 70
e 7 73
e 7 75
e 8 9
e 8 11
e 8 14
e 8 16
e 8 17
e 8 19
e 8 22
e 8 23
e 8 24
e 8 26
e 8 29
e 8 30
e 8 31
e 8 34
e 8 35
e 8 36
e 8 38
e 8 39
e 8 40
e 8 41
e 8 44
e 8 45
e 8 48
e 8 49
e 8 50
e 8 54
e 8 56
e 8 57
e 8 59
e 8 65
e 8 66
e 8 67
e 8 69
e 8 70
e 8 74
e 9 12
e 9 15
e 9 18
e 9 21
e 9 23
e 9 25
e 9 27
e 9 28
e 9 31
e 9 32
e 9 34
e 9 39
e 9 41
e 9 43
e 9 45
e 9 47
e 9 48
e 9 50
e 9 52
e 9 55
e 9 56
e 9 58
e 9 59
e 9 60
e 9 61
e 9 62
e 9 63
e 9 64
e 9 68
e 9 69
e 9 70
e 9 71
e 9 73
e 9 74
e 10 13
e 10 14
e 10 16
e 10 18
e 10 19
e 10 24
e 10 27
e 10 29
e 10 31
e 10 32
e 10 34
e 10 40
e 10 42
e 10 43
e 10 44
e 10 45
e 10 46
e 10 48
e 10 49
e 10 51
e 10 52
e 10 54
e 10 55
e 10 59
e 10 61
e 10 64
e 10 65
e 10 66
e 10 71
e 10 72
e 10 75
e 11 13
e 11 21
e 11 22
e 11 24
e 11 35
e 11 36
e 11 37
e 11 38
e 11 39
e 11 41
e 11 46
e 11 47
e 11 52
e 11 53
e 11 58
e 11 59
e 11 60
e 11 62
e 11 64
e 11 67
e 11 68
e 11 69
e 11 70
e 11 73
e 11 75
e 12 13
e 12 17
e 12 18
e 12 19
e 12 20
e 12 24
e 12 25
e 12 28
e 12 31
e 12 32
e 12 34
e 12 35
e 12 36
e 12 37
e 12 38
e 12 39
e 12 40
e 12 41
e 12 42
e 12 43
e 12 44
e 12 45
e 12 47
e 12 49
e 12 52
e 12 53
e 12 56
e 12 58
e 12 60
e 12 61
e 12 63
e 12 64
e 12 69
e 12 70
e 12 71
e 12 72
e 12 73
e 13 14
e 13 15
e 13 17
e 13 18
e 13 20
e 13 22
e 13 24
e 13 26
e 13 27
e 13 28
e 13 29
e 13 31
e 13 34
e 13 35
e 13 37
e 13 38
e 13 39
e 13 41
e 13 42
e 13 44
e 13 45
e 13 47
e 13 48
e 13 49
e 13 50
e 13 51
e 13 52
e 13 53
e 13 56
e 13 58
e 13 61
e 13 64
e 13 66
e 13 70
e 13 72
e 13 74
e 14 16
e 14 18
e 14 20
e 14 21
e 14 24
e 14 27
e 14 28
e 14 31
e 14 33
e 14 36
e 14 39
e 14 41
e 14 43
e 14 47
e 14 50
e 14 51
e 14 53
e 14 56
e 14 61
e 14 65
e 14 68
e 14 71
e 14 72
e 15 16
e 15 17
e 15 18
e 15 19
e 15 22
e 15 23
e 15 24
e 15 25
e 15 28
e 15 29
e 15 30
e 15 31
e 15 33
e 15 34
e 15 35
e 15 36
e 15 37
e 15 39
e 15 40
e 15 45
e 15 46
e 15 50
e 15 51
e 15 55
e 15 56
e 15 61
e 15 62
e 15 63
e 15 64
e 15 67
e 15 68
e 15 70
e 15 71
e 15 74
e 16 17
e 16 18
e 16 19
e 16 21
e 16 23
e 16 25
e 16 26
e 16 27
e 16 30
e 16 31
e 16 32
e 16 34
e 16 36
e 16 37
e 16 38
e 16 43
e 16 45
e 16 49
e 16 50
e 16 51
e 16 54
e 16 57
e 16 58
e 16 62
e 16 64
e 16 65
e 16 68
e 16 69
e 16 72
e 16 73
e 16 74
e 16 75
e 17 18
e 17 21
e 17 22
e 17 27
e 17 29
e 17 30
e 17 31
e 17 32
e 17 33
e 17 34
e 17 38
e 17 43
e 17 44
e 17 46
e 17 47
e 17 50
e 17 56
e 17 57
e 17 65
e 17 66
e 17 67
e 17 69
e 17 70
e 17 75
e 18 20
e 18 22
e 18 23
e 18 26
e 18 27
e 18 28
e 18 29
e 18 32
e 18 33
e 18 35
e 18 36
e 18 38
e 18 40
e 18 42
e 18 43
e 18 46
e 18 51
e 18 52
e 18 53
e 18 54
e 18 55
e 18 59
e 18 60
e 18 62
e 18 65
e 18 66
e 18 69
e 18 71
e 18 72
e 18 75
e 19 23
e 19 24
e 19 25
e 19 26
e 19 28
e 19 29
e 19 30
e 19 33
e 19 35
e 19 37
e 19 38
e 19 41
e 19 43
e 19 45
e 19 46
e 19 47
e 19 49
e 19 51
e 19 52
e 19 54
e 19 57
e 19 58
e 19 59
e 19 61
e 19 63
e 19 66
e 19 68
e 19 70
e 19 72
e 19 73
e 19 74
e 19 75
e 20 23
e 20 24
e 20 25
e 20 26
e 20 29
e 20 30
e 20 31
e 20 33
e 20 34
e 20 36
e 20 40
e 20 43
e 20 44
e 20 45
e 20 47
e 20 50
e 20 51
e 20 52
e 20 53
e 20 54
e 20 58
e 20 64
e 20 65
e 20 66
e 20 70
e 20 72
e 21 22
e 21 25
e 21 28
e 21 30
e 21 31
e 21 33
e 21 34
e 21 37
e 21 38
e 21 39
e 21 40
e 21 43
e 21 46
e 21 47
e 21 49
e 21 50
e 21 51
e 21 52
e 21 58
e 21 61
e 21 62
e 21 67
e 21 69
e 21 71
e 22 23
e 22 27
e 22 28
e 22 35
e 22 36
e 22 37
e 22 38
e 22 39
e 22 41
e 22 42
e 22 44
e 22 48
e 22 49
e 22 53
e 22 54
e 22 56
e 22 58
e 22 59
e 22 61
e 22 64
e 22 65
e 22 67
e 22 71
e 22 73
e 22 74
e 23 27
e 23 30
e 23 34
e 23 35
e 23 36
e 23 39
e 23 40
e 23 42
e 23 43
e 23 44
e 23 46
e 23 47
e 23 48
e 23 49
e 23 51
e 23 55
e 23 57
e 23 61
e 23 62
e 23 63
e 23 67
e 23 68
e 23 69
e 23 70
e 23 73
e 23 74
e 23 75
e 24 27
e 24 28
e 24 29
e 24 30
e 24 32
e 24 35
e 24 36
e 24 41
e 24 42
e 24 43
e 24 44
e 24 46
e 24 48
e 24 53
e 24 54
e 24 55
e 24 57
e 24 58
e 24 60
e 24 63
e 24 66
e 24 70
e 24 72
e 24 74
e 24 75
e 25 26
e 25 29
e 25 30
e 25 35
e 25 36
e 25 37
e 25 38
e 25 40
e 25 41
e 25 42
e 25 43
e 25 44
e 25 46
e 25 47
e 25 53
e 25 55
e 25 56
e 25 59
e 25 61
e 25 66
e 25 67
e 25 68
e 25 69
e 25 71
e 25 74
e 25 75
e 26 30
e 26 31
e 26 32
e 26 33
e 26 35
e 26 36
e 26 42
e 26 47
e 26 51
e 26 54
e 26 56
e 26 57
e 26 58
e 26 59
e 26 60
e 26 64
e 26 65
e 26 67
e 26 68
e 26 70
e 26 74
e 27 28
e 27 29
e 27 30
e 27 31
e 27 33
e 27 34
e 27 35
e 27 36
e 27 37
e 27 40
e 27 41
e 27 42
e 27 43
e 27 47
e 27 49
e 27 54
e 27 55
e 27 60
e 27 61
e 27 62
e 27 63
e 27 64
e 27 65
e 27 67
e 27 68
e 27 69
e 27 70
e 27 71
e 27 72
e 27 73
e 27 74
e 28 29
e 28 33
e 28 34
e 28 36
e 28 37
e 28 39
e 28 40
e 28 42
e 28 49
e 28 51
e 28 52
e 28 53
e 28 57
e 28 58
e 28 59
e 28 61
e 28 63
e 28 64
e 28 65
e 28 66
e 28 67
e 28 69
e 28 74
e 29 33
e 29 35
e 29 36
e 29 37
e 29 38
e 29 39
e 29 41
e 29 44
e 29 50
e 29 52
e 29 53
e 29 54
e 29 55
e 29 56
e 29 58
e 29 64
e 29 71
e 29 72
e 29 74
e 29 75
e 30 31
e 30 32
e 30 35
e 30 37
e 30 40
e 30 41
e 30 42
e 30 43
e 30 47
e 30 48
e 30 49
e 30 51
e 30 52
e 30 53
e 30 54
e 30 55
e 30 56
e 30 58
e 30 60
e 30 61
e 30 63
e 30 64
e 30 66
e 30 68
e 30 71
e 30 72
e 30 73
e 30 75
e 31 40
e 31 42
e 31 43
e 31 45
e 31 51
e 31 52
e 31 55
e 31 56
e 31 57
e 31 61
e 31 62
e 31 63
e 31 64
e 31 66
e 31 68
e 31 70
e 31 71
e 31 73
e 32 35
e 32 38
e 32 39
e 32 40
e 32 42
e 32 43
e 32 44
e 32 45
e 32 46
e 32 47
e 32 48
e 32 49
e 32 54
e 32 58
e 32 59
e 32 62
e 32 64
e 32 71
e 32 72
e 32 73
e 32 75
e 33 34
e 33 38
e 33 39
e 33 40
e 33 43
e 33 44
e 33 45
e 33 46
e 33 48
e 33 49
e 33 50
e 33 51
e 33 53
e 33 55
e 33 57
e 33 59
e 33 61
e 33 63
e 33 67
e 33 70
e 33 71
e 33 73
e 33 74
e 34 35
e 34 36
e 34 37
e 34 41
e 34 42
e 34 43
e 34 44
e 34 45
e 34 49
e 34 52
e 34 53
e 34 55
e 34 56
e 34 64
e 34 66
e 34 67
e 34 69
e 34 70
e 34 71
e 34 74
e 34 75
e 35 38
e 35 40
e 35 44
e 35 47
e 35 48
e 35 49
e 35 53
e 35 54
e 35 58
e 35 64
e 35 65
e 35 67
e 35 68
e 35 74
e 36 37
e 36 41
e 36 43
e 36 45
e 36 47
e 36 48
e 36 56
e 36 58
e 36 59
e 36 61
e 36 62
e 36 69
e 36 70
e 36 72
e 36 74
e 37 38
e 37 42
e 37 43
e 37 44
e 37 45
e 37 48
e 37 49
e 37 50
e 37 52
e 37 53
e 37 55
e 37 58
e 37 59
e 37 63
e 37 66
e 37 67
e 37 68
e 37 70
e 37 71
e 37 72
e 37 73
e 37 75
e 38 40
e 38 42
e 38 43
e 38 45
e 38 49
e 38 50
e 38 51
e 38 54
e 38 55
e 38 58
e 38 59
e 38 62
e 38 63
e 38 64
e 38 65
e 38 68
e 38 69
e 38 70
e 38 72
e 38 74
e 38 75
e 39 40
e 39 41
e 39 42
e 39 44
e 39 45
e 39 47
e 39 50
e 39 53
e 39 55
e 39 56
e 39 57
e 39 59
e 39 60
e 39 61
e 39 63
e 39 64
e 39 68
e 39 69
e 39 71
e 39 72
e 40 42
e 40 43
e 40 48
e 40 49
e 40 50
e 40 54
e 40 55
e 40 58
e 40 59
e 40 60
e 40 61
e 40 63
e 40 64
e 40 66
e 40 67
e 40 70
e 40 73
e 40 75
e 41 43
e 41 44
e 41 50
e 41 53
e 41 57
e 41 58
e 41 60
e 41 61
e 41 62
e 41 63
e 41 64
e 41 66
e 41 68
e 41 72
e 41 75
e 42 45
e 42 50
e 42 53
e 42 54
e 42 55
e 42 60
e 42 63
e 42 64
e 42 66
e 42 67
e 42 68
e 42 70
e 42 71
e 42 73
e 42 74
e 42 75
e 43 45
e 43 47
e 43 50
e 43 51
e 43 53
e 43 56
e 43 58
e 43 62
e 43 66
e 43 67
e 43 68
e 43 69
e 43 71
e 43 72
e 43 73
e 44 45
e 44 47
e 44 48
e 44 50
e 44 52
e 44 54
e 44 58
e 44 60
e 44 61
e 44 63
e 44 64
e 44 66
e 44 68
e 44 70
e 44 72
e 44 75
e 45 46
e 45 47
e 45 55
e 45 56
e 45 57
e 45 58
e 45 59
e 45 64
e 45 67
e 45 68
e 45 69
e 45 72
e 45 74
e 46 48
e 46 51
e 46 52
e 46 53
e 46 54
e 46 56
e 46 59
e 46 69
e 46 71
e 46 72
e 46 73
e 46 75
e 47 51
e 47 56
e 47 64
e 47 65
e 47 66
e 47 67
e 47 73
e 48 50
e 48 51
e 48 54
e 48 56
e 48 57
e 48 58
e 48 64
e 48 70
e 48 74
e 48 75
e 49 50
e 49 54
e 49 60
e 49 61
e 49 62
e 49 68
e 49 69
e 49 71
e 49 73
e 49 74
e 50 52
e 50 54
e 50 55
e 50 56
e 50 57
e 50 58
e 50 63
e 50 66
e 50 67
e 50 69
e 50 70
e 50 72
e 50 73
e 51 53
e 51 54
e 51 56
e 51 57
e 51 60
e 51 62
e 51 63
e 51 64
e 51 66
e 51 67
e 51 69
e 51 71
e 51 73
e 51 75
e 52 54
e 52 55
e 52 59
e 52 62
e 52 63
e 52 64
e 52 66
e 52 67
e 52 68
e 52 69
e 52 70
e 52 72
e 53 55
e 53 56
e 53 57
e 53 60
e 53 61
e 53 62
e 53 63
e 53 64
e 53 65
e 53 66
e 53 67
e 53 68
e 53 70
e 53 71
e 53 73
e 53 74
e 53 75
e 54 58
e 54 59
e 54 60
e 54 62
e 54 64
e 54 67
e 54 68
e 54 70
e 54 73
e 54 74
e 54 75
e 55 56
e 55 57
e 55 58
e 55 59
e 55 60
e 55 66
e 55 67
e 55 68
e 55 74
e 56 63
e 56 65
e 56 67
e 56 68
e 56 71
e 56 72
e 57 59
e 57 60
e 57 61
e 57 63
e 57 64
e 57 65
e 57 69
e 57 70
e 57 71
e 57 74
e 57 75
e 58 61
e 58 62
e 58 63
e 58 64
e 58 65
e 58 68
e 58 69
e 58 71
e 58 72
e 58 75
e 59 60
e 59 61
e 59 62
e 59 66
e 59 67
e 59 68
e 59 69
e 59 70
e 59 71
e 59 72
e 59 74
e 59 75
e 60 63
e 60 64
e 60 68
e 60 69
e 60 70
e 61 63
e 61 64
e 61 65
e 61 67
e 61 68
e 61 70
e 61 72
e 61 73
e 62 63
e 62 65
e 62 67
e 62 68
e 62 69
e 62 73
e 62 75
e 63 64
e 63 66
e 63 68
e 63 69
e 63 71
e 63 72
e 63 73
e 64 66
e 64 69
e 64 70
e 64 73
e 64 75
e 65 67
e 65 68
e 65 70
e 65 74
e 66 70
e 66 75
e 67 68
e 67 70
e 67 71
e 67 72
e 67 75
e 68 69
e 68 70
e 68 72
e 68 73
e 68 74
e 69 70
e 69 71
e 69 74
e 70 71
e 70 72
e 70 73
e 71 74
e 71 75
e 72 73
e 72 74
e 74 75
